GLPSOL--GLPK LP/MIP Solver 5.0
Parameter(s) specified in the command line:
 --lp ../modeles/3_294.lp --log 3_294.log
Reading problem data from '../modeles/3_294.lp'...
895 rows, 1770 columns, 6183 non-zeros
882 integer variables, all of which are binary
2674 lines were read
GLPK Integer Optimizer 5.0
895 rows, 1770 columns, 6183 non-zeros
882 integer variables, all of which are binary
Preprocessing...
870 constraint coefficient(s) were reduced
895 rows, 1767 columns, 6180 non-zeros
882 integer variables, all of which are binary
Scaling...
 A: min|aij| =  1.851e-04  max|aij| =  4.000e+00  ratio =  2.161e+04
GM: min|aij| =  8.248e-02  max|aij| =  1.212e+01  ratio =  1.470e+02
EQ: min|aij| =  6.803e-03  max|aij| =  1.000e+00  ratio =  1.470e+02
2N: min|aij| =  5.923e-03  max|aij| =  1.754e+00  ratio =  2.961e+02
Constructing initial basis...
Size of triangular part is 895
Solving LP relaxation...
GLPK Simplex Optimizer 5.0
895 rows, 1767 columns, 6180 non-zeros
      0: obj =   6.000000000e+00 inf =   1.450e+01 (7)
     56: obj =   4.432346748e-01 inf =   0.000e+00 (0)
*   206: obj =  -1.731932773e+00 inf =   1.404e-16 (0)
OPTIMAL LP SOLUTION FOUND
Integer optimization begins...
Long-step dual simplex will be used
+   206: mip =     not found yet >=              -inf        (1; 0)
+   701: >>>>>  -1.731932773e+00 >=  -1.731932773e+00   0.0% (494; 0)
+   701: mip =  -1.731932773e+00 >=     tree is empty   0.0% (0; 987)
INTEGER OPTIMAL SOLUTION FOUND
Time used:   0.6 secs
Memory used: 2.7 Mb (2789321 bytes)
